bestever    1656    in generation 0
[2, 14, 4, 16, 19, 11, 15, 18, 20, 13, 12, 10, 7, 9, 5, 3, 17, 1, 8, 6, 2, 14, 4, 16, 19, 11, 15, 18, 20, 13, 12, 10, 7, 9, 5, 3, 17, 1, 8, 6, 2, 14, 4, 16, 19, 11, 15, 18, 20, 13, 12, 10, 7, 9, 5, 3, 17, 1, 8, 6, 2, 14, 4, 16, 19, 11, 15, 18, 20, 13, 12, 10, 7, 9, 5, 3, 17, 1, 8, 6, 2, 14, 4, 16, 19, 11, 15, 18, 20, 13, 12, 10, 7, 9, 5, 3, 17, 1, 8, 6, 2, 14, 4, 16, 19, 11, 15, 18, 20, 13, 12, 10, 7, 9, 5, 3, 17, 1, 8, 6, 2, 14, 4, 16, 19, 11, 15, 18, 20, 13, 12, 10, 7, 9, 5, 3, 17, 1, 8, 6, 2, 14, 4, 16, 19, 11, 15, 18, 20, 13, 12, 10, 7, 9, 5, 3, 17, 1, 8, 6, 2, 14, 4, 16, 19, 11, 15, 18, 20, 13, 12, 10, 7, 9, 5, 3, 17, 1, 8, 6, 2, 14, 4, 16, 19, 11, 15, 18, 20, 13, 12, 10, 7, 9, 5, 3, 17, 1, 8, 6]
bestever    1606    in generation 102
[2, 14, 4, 16, 19, 11, 15, 18, 20, 13, 12, 9, 10, 7, 5, 3, 17, 1, 8, 6, 2, 14, 4, 16, 19, 11, 15, 18, 20, 13, 12, 9, 10, 7, 5, 3, 17, 1, 8, 6, 2, 14, 4, 16, 19, 11, 15, 18, 20, 13, 12, 9, 10, 7, 5, 3, 17, 1, 8, 6, 2, 14, 4, 16, 19, 11, 15, 18, 20, 13, 12, 9, 10, 7, 5, 3, 17, 1, 8, 6, 2, 14, 4, 16, 19, 11, 15, 18, 20, 13, 12, 9, 10, 7, 5, 3, 17, 1, 8, 6, 2, 14, 4, 16, 19, 11, 15, 18, 20, 13, 12, 9, 10, 7, 5, 3, 17, 1, 8, 6, 2, 14, 4, 16, 19, 11, 15, 18, 20, 13, 12, 9, 10, 7, 5, 3, 17, 1, 8, 6, 2, 14, 4, 16, 19, 11, 15, 18, 20, 13, 12, 9, 10, 7, 5, 3, 17, 1, 8, 6, 2, 14, 4, 16, 19, 11, 15, 18, 20, 13, 12, 9, 10, 7, 5, 3, 17, 1, 8, 6, 2, 14, 4, 16, 19, 11, 15, 18, 20, 13, 12, 9, 10, 7, 5, 3, 17, 1, 8, 6]
bestever    1599    in generation 204
[2, 14, 4, 16, 19, 11, 15, 18, 20, 12, 9, 13, 10, 7, 5, 3, 17, 1, 8, 6, 2, 14, 4, 16, 19, 11, 15, 18, 20, 12, 9, 13, 10, 7, 5, 3, 17, 1, 8, 6, 2, 14, 4, 16, 19, 11, 15, 18, 20, 12, 9, 13, 10, 7, 5, 3, 17, 1, 8, 6, 2, 14, 4, 16, 19, 11, 15, 18, 20, 12, 9, 13, 10, 7, 5, 3, 17, 1, 8, 6, 2, 14, 4, 16, 19, 11, 15, 18, 20, 12, 9, 13, 10, 7, 5, 3, 17, 1, 8, 6, 2, 14, 4, 16, 19, 11, 15, 18, 20, 12, 9, 13, 10, 7, 5, 3, 17, 1, 8, 6, 2, 14, 4, 16, 19, 11, 15, 18, 20, 12, 9, 13, 10, 7, 5, 3, 17, 1, 8, 6, 2, 14, 4, 16, 19, 11, 15, 18, 20, 12, 9, 13, 10, 7, 5, 3, 17, 1, 8, 6, 2, 14, 4, 16, 19, 11, 15, 18, 20, 12, 9, 13, 10, 7, 5, 3, 17, 1, 8, 6, 2, 14, 4, 16, 19, 11, 15, 18, 20, 12, 9, 13, 10, 7, 5, 3, 17, 1, 8, 6]
bestever    1587    in generation 306
[2, 14, 4, 16, 19, 11, 15, 18, 20, 12, 9, 13, 10, 7, 3, 17, 5, 1, 8, 6, 2, 14, 4, 16, 19, 11, 15, 18, 20, 12, 9, 13, 10, 7, 3, 17, 5, 1, 8, 6, 2, 14, 4, 16, 19, 11, 15, 18, 20, 12, 9, 13, 10, 7, 3, 17, 5, 1, 8, 6, 2, 14, 4, 16, 19, 11, 15, 18, 20, 12, 9, 13, 10, 7, 3, 17, 5, 1, 8, 6, 2, 14, 4, 16, 19, 11, 15, 18, 20, 12, 9, 13, 10, 7, 3, 17, 5, 1, 8, 6, 2, 14, 4, 16, 19, 11, 15, 18, 20, 12, 9, 13, 10, 7, 3, 17, 5, 1, 8, 6, 2, 14, 4, 16, 19, 11, 15, 18, 20, 12, 9, 13, 10, 7, 3, 17, 5, 1, 8, 6, 2, 14, 4, 16, 19, 11, 15, 18, 20, 12, 9, 13, 10, 7, 3, 17, 5, 1, 8, 6, 2, 14, 4, 16, 19, 11, 15, 18, 20, 12, 9, 13, 10, 7, 3, 17, 5, 1, 8, 6, 2, 14, 4, 16, 19, 11, 15, 18, 20, 12, 9, 13, 10, 7, 3, 17, 5, 1, 8, 6]
bestever    1581    in generation 409
[2, 14, 4, 16, 19, 11, 12, 15, 18, 20, 9, 13, 10, 7, 3, 17, 5, 1, 8, 6, 2, 14, 4, 16, 19, 11, 12, 15, 18, 20, 9, 13, 10, 7, 3, 17, 5, 1, 8, 6, 2, 14, 4, 16, 19, 11, 12, 15, 18, 20, 9, 13, 10, 7, 3, 17, 5, 1, 8, 6, 2, 14, 4, 16, 19, 11, 12, 15, 18, 20, 9, 13, 10, 7, 3, 17, 5, 1, 8, 6, 2, 14, 4, 16, 19, 11, 12, 15, 18, 20, 9, 13, 10, 7, 3, 17, 5, 1, 8, 6, 2, 14, 4, 16, 19, 11, 12, 15, 18, 20, 9, 13, 10, 7, 3, 17, 5, 1, 8, 6, 2, 14, 4, 16, 19, 11, 12, 15, 18, 20, 9, 13, 10, 7, 3, 17, 5, 1, 8, 6, 2, 14, 4, 16, 19, 11, 12, 15, 18, 20, 9, 13, 10, 7, 3, 17, 5, 1, 8, 6, 2, 14, 4, 16, 19, 11, 12, 15, 18, 20, 9, 13, 10, 7, 3, 17, 5, 1, 8, 6, 2, 14, 4, 16, 19, 11, 12, 15, 18, 20, 9, 13, 10, 7, 3, 17, 5, 1, 8, 6]
bestever    1578    in generation 511
[2, 14, 4, 16, 19, 11, 15, 18, 20, 9, 12, 13, 10, 7, 3, 17, 5, 1, 8, 6, 2, 14, 4, 16, 19, 11, 15, 18, 20, 9, 12, 13, 10, 7, 3, 17, 5, 1, 8, 6, 2, 14, 4, 16, 19, 11, 15, 18, 20, 9, 12, 13, 10, 3, 7, 17, 5, 1, 8, 6, 2, 14, 4, 16, 19, 11, 15, 18, 20, 9, 12, 13, 10, 7, 3, 17, 5, 1, 8, 6, 2, 14, 4, 16, 19, 11, 15, 18, 20, 9, 12, 13, 10, 7, 3, 17, 5, 1, 8, 6, 2, 14, 4, 16, 19, 11, 15, 18, 20, 9, 12, 13, 10, 7, 3, 17, 5, 1, 8, 6, 2, 14, 4, 16, 19, 11, 15, 18, 20, 9, 12, 13, 10, 7, 3, 17, 5, 1, 8, 6, 2, 14, 4, 16, 19, 11, 15, 18, 20, 9, 12, 13, 10, 7, 3, 17, 5, 1, 8, 6, 2, 14, 4, 16, 19, 11, 15, 18, 20, 9, 12, 13, 10, 7, 3, 17, 5, 1, 8, 6, 2, 14, 4, 16, 19, 11, 15, 18, 20, 9, 12, 13, 10, 7, 3, 17, 5, 1, 8, 6]
bestever    1568    in generation 628
[2, 14, 4, 16, 19, 11, 15, 20, 9, 12, 18, 13, 10, 7, 3, 17, 5, 1, 6, 8, 2, 14, 4, 16, 19, 11, 15, 20, 9, 12, 18, 13, 10, 7, 3, 17, 5, 1, 8, 6, 2, 14, 4, 16, 19, 11, 15, 20, 9, 12, 18, 13, 10, 7, 3, 17, 5, 1, 8, 6, 2, 14, 4, 16, 19, 11, 15, 20, 9, 12, 18, 13, 10, 7, 3, 17, 5, 1, 8, 6, 2, 14, 4, 16, 19, 11, 15, 20, 9, 12, 18, 13, 10, 7, 3, 17, 5, 1, 8, 6, 2, 14, 4, 16, 19, 11, 15, 20, 9, 12, 18, 13, 10, 7, 3, 17, 5, 1, 8, 6, 2, 14, 4, 16, 19, 11, 15, 20, 9, 12, 18, 13, 10, 7, 3, 17, 5, 1, 8, 6, 2, 14, 4, 16, 19, 11, 15, 20, 9, 12, 18, 13, 10, 7, 3, 17, 5, 1, 8, 6, 2, 14, 4, 16, 19, 11, 15, 20, 9, 12, 18, 13, 10, 7, 3, 17, 5, 1, 8, 6, 2, 14, 4, 16, 19, 11, 15, 20, 9, 12, 18, 13, 10, 7, 3, 17, 5, 1, 8, 6]
bestever    1561    in generation 730
[2, 14, 4, 16, 19, 11, 15, 20, 12, 9, 18, 13, 10, 7, 3, 17, 5, 1, 8, 6, 2, 14, 4, 16, 19, 11, 15, 20, 12, 9, 18, 13, 10, 7, 3, 17, 5, 1, 8, 6, 2, 14, 4, 16, 19, 11, 15, 20, 12, 9, 18, 13, 10, 7, 3, 17, 5, 1, 8, 6, 2, 14, 4, 16, 19, 11, 15, 20, 12, 9, 18, 13, 10, 7, 3, 17, 5, 1, 8, 6, 2, 14, 4, 16, 19, 11, 15, 20, 12, 9, 18, 13, 10, 7, 3, 17, 5, 1, 8, 6, 2, 14, 4, 16, 19, 11, 15, 20, 12, 9, 18, 13, 10, 7, 3, 17, 5, 1, 8, 6, 2, 14, 4, 16, 19, 11, 15, 20, 12, 9, 18, 13, 10, 7, 3, 17, 5, 1, 8, 6, 2, 14, 4, 16, 19, 11, 15, 20, 12, 9, 18, 13, 10, 7, 3, 17, 5, 1, 8, 6, 2, 14, 4, 16, 19, 11, 15, 20, 12, 9, 18, 13, 10, 7, 3, 17, 5, 1, 8, 6, 2, 14, 4, 16, 19, 11, 15, 20, 12, 9, 18, 13, 10, 7, 3, 17, 5, 1, 8, 6]
bestever    1544    in generation 845
[2, 14, 4, 16, 19, 11, 20, 12, 15, 9, 18, 13, 10, 7, 3, 17, 5, 1, 8, 6, 2, 14, 4, 16, 19, 11, 20, 12, 15, 9, 18, 13, 10, 7, 3, 17, 5, 1, 8, 6, 2, 14, 4, 16, 19, 11, 20, 12, 15, 9, 18, 13, 10, 7, 3, 17, 5, 1, 8, 6, 2, 14, 4, 16, 19, 11, 20, 12, 15, 9, 18, 13, 10, 7, 3, 17, 5, 1, 8, 6, 2, 14, 4, 16, 19, 11, 20, 12, 15, 9, 18, 13, 10, 7, 3, 17, 5, 1, 8, 6, 2, 14, 4, 16, 19, 11, 20, 12, 15, 9, 18, 13, 10, 7, 3, 17, 5, 1, 8, 6, 2, 14, 4, 16, 19, 11, 20, 12, 15, 9, 18, 13, 10, 7, 3, 17, 5, 1, 8, 6, 2, 14, 4, 16, 19, 11, 20, 12, 15, 9, 18, 13, 10, 7, 3, 17, 5, 1, 8, 6, 2, 14, 4, 16, 19, 11, 20, 12, 15, 9, 18, 13, 10, 7, 3, 17, 5, 1, 8, 6, 2, 14, 4, 16, 19, 11, 20, 12, 15, 9, 18, 13, 10, 7, 3, 17, 5, 1, 8, 6]
bestever    1541    in generation 947
[2, 14, 4, 16, 19, 11, 20, 12, 15, 18, 9, 13, 10, 7, 3, 17, 5, 1, 8, 6, 2, 14, 4, 16, 19, 11, 20, 12, 15, 18, 9, 13, 10, 7, 3, 17, 5, 1, 8, 6, 2, 14, 4, 16, 19, 11, 20, 12, 15, 18, 9, 13, 10, 7, 3, 17, 5, 1, 8, 6, 2, 14, 4, 16, 19, 11, 20, 12, 15, 18, 9, 13, 10, 7, 3, 17, 5, 1, 8, 6, 2, 14, 4, 16, 19, 11, 20, 12, 15, 18, 9, 13, 10, 7, 3, 17, 5, 1, 8, 6, 14, 2, 4, 16, 19, 11, 20, 12, 15, 18, 9, 13, 10, 7, 3, 17, 5, 1, 8, 6, 14, 2, 4, 16, 19, 11, 20, 12, 15, 18, 9, 13, 10, 7, 3, 17, 5, 1, 8, 6, 2, 14, 4, 16, 19, 11, 20, 12, 15, 18, 9, 13, 10, 7, 3, 17, 5, 1, 8, 6, 2, 14, 4, 16, 19, 11, 20, 12, 15, 18, 9, 13, 10, 7, 3, 17, 5, 1, 8, 6, 2, 14, 4, 16, 19, 11, 20, 12, 15, 18, 9, 13, 10, 7, 3, 17, 5, 1, 8, 6]
bestever    1540    in generation 1049
[16, 2, 14, 4, 19, 11, 20, 12, 15, 18, 9, 13, 10, 7, 3, 17, 5, 1, 8, 6, 16, 2, 14, 4, 19, 11, 20, 12, 15, 18, 9, 13, 10, 7, 3, 17, 5, 1, 8, 6, 16, 2, 14, 4, 19, 11, 20, 12, 15, 18, 9, 13, 10, 7, 3, 17, 5, 1, 8, 6, 16, 2, 14, 4, 19, 11, 20, 12, 15, 18, 9, 13, 10, 7, 3, 17, 5, 1, 8, 6, 16, 2, 14, 4, 19, 11, 20, 12, 15, 18, 9, 13, 10, 7, 3, 17, 5, 1, 8, 6, 16, 14, 2, 4, 19, 11, 20, 12, 15, 18, 9, 13, 10, 7, 3, 17, 5, 1, 8, 6, 16, 14, 2, 4, 19, 11, 20, 12, 15, 18, 9, 13, 10, 7, 3, 17, 5, 1, 8, 6, 16, 2, 14, 4, 19, 11, 20, 12, 15, 18, 9, 13, 10, 7, 3, 17, 5, 1, 8, 6, 16, 2, 14, 4, 19, 11, 20, 12, 15, 18, 9, 13, 10, 7, 3, 17, 5, 1, 8, 6, 16, 2, 14, 4, 19, 11, 20, 12, 15, 18, 9, 13, 10, 7, 3, 17, 5, 1, 8, 6]
bestever    1534    in generation 1172
[16, 2, 14, 4, 19, 11, 20, 12, 15, 18, 9, 13, 10, 3, 17, 5, 1, 8, 7, 6, 16, 2, 14, 4, 19, 11, 20, 12, 15, 18, 9, 13, 10, 3, 17, 5, 1, 8, 7, 6, 16, 2, 14, 4, 19, 11, 20, 12, 15, 18, 9, 13, 10, 3, 17, 5, 1, 8, 7, 6, 16, 2, 14, 4, 19, 11, 20, 12, 15, 18, 9, 13, 10, 3, 17, 5, 1, 8, 7, 6, 16, 2, 14, 4, 19, 11, 20, 12, 15, 18, 9, 13, 10, 3, 17, 5, 1, 8, 7, 6, 16, 14, 2, 4, 19, 11, 20, 12, 15, 18, 9, 13, 10, 3, 17, 5, 1, 8, 7, 6, 16, 14, 2, 4, 19, 11, 20, 12, 15, 18, 9, 13, 10, 3, 17, 5, 1, 8, 7, 6, 16, 2, 14, 4, 19, 11, 20, 12, 15, 18, 9, 13, 10, 3, 17, 5, 1, 8, 7, 6, 16, 2, 14, 4, 19, 11, 20, 12, 15, 18, 9, 13, 10, 3, 17, 5, 1, 8, 7, 6, 16, 2, 14, 4, 19, 11, 20, 12, 15, 18, 9, 13, 10, 3, 17, 5, 1, 8, 7, 6]
bestever    1524    in generation 1276
[16, 2, 14, 4, 19, 11, 10, 20, 12, 15, 18, 9, 13, 3, 17, 5, 1, 8, 7, 6, 16, 2, 14, 4, 19, 11, 10, 20, 12, 15, 18, 9, 13, 3, 17, 5, 1, 8, 7, 6, 16, 2, 14, 4, 19, 11, 10, 20, 12, 15, 18, 9, 13, 3, 17, 5, 1, 8, 7, 6, 16, 2, 14, 4, 19, 11, 10, 20, 12, 15, 18, 9, 13, 3, 17, 5, 1, 8, 7, 6, 16, 2, 14, 4, 19, 11, 10, 20, 12, 15, 18, 9, 13, 3, 17, 5, 1, 8, 7, 6, 16, 14, 2, 4, 19, 11, 10, 20, 12, 15, 18, 9, 13, 3, 17, 5, 1, 8, 7, 6, 16, 2, 14, 4, 19, 11, 10, 20, 12, 15, 18, 9, 13, 3, 17, 5, 1, 8, 7, 6, 16, 2, 14, 4, 19, 11, 10, 20, 12, 15, 18, 9, 13, 3, 17, 5, 1, 8, 7, 6, 16, 2, 14, 4, 19, 11, 10, 20, 12, 15, 18, 9, 13, 3, 17, 5, 1, 8, 7, 6, 16, 2, 14, 4, 19, 11, 10, 20, 12, 15, 18, 9, 13, 3, 17, 5, 1, 8, 7, 6]
bestever    1520    in generation 1378
[16, 2, 4, 14, 19, 11, 10, 20, 12, 15, 18, 9, 13, 3, 17, 5, 1, 8, 7, 6, 16, 2, 4, 14, 19, 11, 10, 20, 12, 15, 18, 9, 13, 3, 17, 5, 1, 8, 7, 6, 16, 2, 4, 14, 19, 11, 10, 20, 12, 15, 18, 9, 13, 3, 17, 5, 1, 8, 7, 6, 16, 2, 4, 14, 19, 11, 10, 20, 12, 15, 18, 9, 13, 3, 17, 5, 1, 8, 7, 6, 16, 2, 4, 14, 19, 11, 10, 20, 12, 15, 18, 9, 13, 3, 17, 5, 1, 8, 7, 6, 16, 2, 4, 14, 19, 11, 10, 20, 12, 15, 18, 9, 13, 3, 17, 5, 1, 8, 7, 6, 16, 2, 4, 14, 19, 11, 10, 20, 12, 15, 18, 9, 13, 3, 17, 5, 1, 8, 7, 6, 16, 2, 4, 14, 19, 11, 10, 20, 12, 15, 18, 9, 13, 3, 17, 5, 1, 8, 7, 6, 16, 2, 4, 14, 19, 11, 10, 20, 12, 15, 18, 9, 13, 3, 17, 5, 1, 8, 7, 6, 19, 11, 16, 2, 4, 14, 10, 20, 12, 15, 18, 9, 13, 3, 17, 5, 1, 8, 7, 6]
bestever    1507    in generation 1480
[16, 2, 4, 14, 19, 11, 10, 20, 12, 15, 9, 18, 13, 3, 17, 5, 1, 8, 7, 6, 16, 2, 4, 14, 19, 11, 10, 20, 12, 15, 9, 18, 13, 3, 17, 5, 1, 8, 7, 6, 16, 2, 4, 14, 19, 11, 10, 20, 12, 15, 9, 18, 13, 3, 17, 5, 1, 8, 7, 6, 16, 2, 4, 14, 19, 11, 10, 20, 12, 15, 9, 18, 13, 3, 17, 5, 1, 8, 7, 6, 16, 2, 4, 14, 19, 11, 10, 20, 12, 15, 9, 18, 13, 3, 17, 5, 1, 8, 7, 6, 16, 2, 4, 14, 19, 11, 10, 20, 12, 15, 9, 18, 13, 3, 17, 5, 1, 8, 7, 6, 16, 2, 4, 14, 19, 11, 10, 20, 12, 15, 9, 18, 13, 3, 17, 5, 1, 8, 7, 6, 16, 2, 4, 14, 19, 11, 10, 20, 12, 15, 9, 18, 13, 3, 17, 5, 1, 8, 7, 6, 16, 2, 4, 14, 19, 11, 10, 20, 12, 15, 9, 18, 13, 3, 17, 5, 1, 8, 7, 6, 19, 11, 16, 2, 4, 14, 10, 20, 12, 15, 9, 18, 13, 3, 17, 5, 1, 8, 7, 6]
bestever    1497    in generation 1585
[16, 2, 4, 14, 19, 11, 10, 20, 12, 15, 9, 18, 13, 3, 5, 1, 8, 17, 7, 6, 16, 2, 4, 14, 19, 11, 10, 20, 12, 15, 9, 18, 13, 3, 5, 1, 8, 17, 7, 6, 16, 2, 4, 14, 19, 11, 10, 20, 12, 15, 9, 18, 13, 3, 5, 1, 8, 17, 7, 6, 16, 2, 4, 14, 19, 11, 10, 20, 12, 15, 9, 18, 13, 3, 5, 1, 8, 17, 7, 6, 16, 2, 4, 14, 19, 11, 10, 20, 12, 15, 9, 18, 13, 3, 5, 1, 8, 17, 7, 6, 16, 2, 4, 14, 19, 11, 10, 20, 12, 15, 9, 18, 13, 3, 5, 1, 8, 17, 7, 6, 16, 2, 4, 14, 19, 11, 10, 20, 12, 15, 9, 18, 13, 3, 5, 1, 8, 17, 7, 6, 16, 2, 4, 14, 19, 11, 10, 20, 12, 15, 9, 18, 13, 3, 5, 1, 8, 17, 7, 6, 16, 2, 4, 14, 19, 11, 10, 20, 12, 15, 9, 18, 13, 3, 5, 1, 8, 17, 7, 6, 16, 2, 4, 14, 19, 11, 10, 20, 12, 15, 9, 18, 13, 3, 5, 1, 8, 17, 7, 6]
bestever    1490    in generation 1700
[16, 2, 4, 14, 19, 11, 10, 20, 12, 15, 9, 18, 13, 3, 5, 8, 1, 17, 7, 6, 16, 2, 4, 14, 19, 11, 10, 20, 12, 15, 9, 18, 13, 3, 5, 8, 1, 17, 7, 6, 16, 2, 4, 14, 19, 11, 10, 20, 12, 15, 9, 18, 13, 3, 5, 8, 1, 17, 7, 6, 16, 2, 4, 14, 19, 11, 10, 20, 12, 15, 9, 18, 13, 3, 5, 8, 1, 17, 7, 6, 16, 2, 4, 14, 19, 11, 10, 20, 12, 15, 9, 18, 13, 3, 5, 8, 1, 17, 7, 6, 16, 2, 4, 14, 19, 11, 10, 20, 12, 15, 9, 18, 13, 3, 5, 8, 1, 17, 7, 6, 16, 2, 4, 14, 19, 11, 10, 20, 12, 15, 9, 18, 13, 3, 5, 8, 1, 17, 7, 6, 16, 2, 4, 14, 19, 11, 10, 20, 12, 15, 9, 18, 13, 3, 5, 8, 1, 17, 7, 6, 16, 2, 4, 14, 19, 11, 10, 20, 12, 15, 9, 18, 13, 3, 5, 8, 1, 17, 7, 6, 16, 2, 4, 14, 19, 11, 10, 20, 12, 15, 9, 18, 13, 3, 5, 8, 1, 17, 7, 6]
bestever    1477    in generation 1817
[16, 2, 4, 14, 19, 11, 10, 20, 12, 15, 9, 13, 18, 3, 5, 8, 1, 17, 7, 6, 16, 2, 4, 14, 19, 11, 10, 20, 12, 15, 9, 13, 18, 3, 5, 8, 1, 17, 7, 6, 16, 2, 4, 14, 19, 11, 10, 20, 12, 15, 9, 13, 18, 3, 5, 8, 1, 17, 7, 6, 16, 2, 4, 14, 19, 11, 10, 20, 12, 15, 9, 13, 18, 3, 5, 8, 1, 17, 7, 6, 16, 2, 4, 14, 19, 11, 10, 20, 12, 15, 9, 13, 18, 3, 5, 8, 1, 17, 7, 6, 16, 2, 4, 14, 19, 11, 10, 20, 12, 15, 9, 13, 18, 3, 5, 8, 1, 17, 7, 6, 16, 2, 4, 14, 19, 11, 10, 20, 12, 15, 9, 13, 18, 3, 5, 8, 1, 17, 7, 6, 16, 2, 4, 14, 19, 11, 10, 20, 12, 15, 9, 13, 18, 3, 5, 8, 1, 17, 7, 6, 16, 2, 4, 14, 19, 11, 10, 20, 12, 15, 9, 13, 18, 3, 5, 8, 1, 17, 7, 6, 16, 2, 4, 14, 19, 11, 10, 20, 12, 15, 9, 13, 18, 3, 5, 8, 1, 17, 7, 6]
bestever    1470    in generation 1969
[16, 2, 4, 14, 19, 10, 9, 11, 20, 12, 15, 13, 18, 3, 5, 8, 1, 17, 7, 6, 16, 2, 4, 14, 19, 10, 9, 11, 20, 12, 15, 13, 18, 3, 5, 8, 1, 17, 7, 6, 16, 2, 4, 14, 19, 10, 9, 11, 20, 12, 15, 13, 18, 3, 5, 8, 1, 17, 7, 6, 16, 2, 4, 14, 19, 10, 9, 11, 20, 12, 15, 13, 18, 3, 5, 8, 1, 17, 7, 6, 16, 2, 4, 14, 19, 10, 9, 11, 20, 12, 15, 13, 18, 3, 5, 8, 1, 17, 7, 6, 16, 2, 4, 14, 19, 10, 9, 11, 20, 12, 15, 13, 18, 3, 5, 8, 1, 17, 7, 6, 16, 2, 4, 14, 19, 10, 9, 11, 20, 12, 15, 13, 18, 3, 5, 8, 1, 17, 7, 6, 16, 2, 4, 14, 19, 10, 9, 11, 20, 12, 15, 13, 18, 3, 5, 8, 1, 17, 7, 6, 16, 2, 4, 14, 19, 10, 9, 11, 20, 12, 15, 13, 18, 3, 5, 8, 1, 17, 7, 6, 2, 16, 4, 14, 19, 10, 9, 11, 20, 12, 15, 13, 18, 3, 5, 8, 1, 17, 7, 6]
bestever    1463    in generation 2171
[2, 4, 16, 14, 19, 10, 11, 9, 20, 12, 13, 15, 18, 3, 5, 8, 1, 17, 7, 6, 2, 4, 16, 14, 19, 10, 11, 9, 20, 12, 13, 15, 18, 3, 5, 8, 1, 17, 7, 6, 2, 4, 16, 14, 19, 10, 11, 9, 20, 12, 13, 15, 18, 3, 5, 8, 1, 17, 7, 6, 2, 4, 16, 14, 19, 10, 11, 9, 20, 12, 13, 15, 18, 3, 5, 8, 1, 17, 7, 6, 2, 4, 16, 14, 19, 10, 11, 9, 20, 12, 13, 15, 18, 3, 5, 8, 1, 17, 7, 6, 2, 4, 16, 14, 19, 10, 11, 9, 20, 12, 13, 15, 18, 3, 5, 8, 1, 17, 7, 6, 2, 4, 16, 14, 19, 10, 11, 9, 20, 12, 13, 15, 18, 3, 5, 8, 1, 17, 7, 6, 2, 4, 16, 14, 19, 10, 11, 9, 20, 12, 13, 15, 18, 3, 5, 8, 1, 17, 7, 6, 2, 4, 16, 14, 19, 10, 11, 9, 20, 12, 13, 15, 18, 3, 5, 8, 1, 17, 7, 6, 2, 4, 16, 14, 19, 10, 11, 9, 20, 12, 13, 15, 18, 3, 5, 8, 1, 17, 7, 6]
bestever    1462    in generation 2279
[2, 4, 16, 14, 19, 10, 11, 9, 12, 20, 13, 15, 18, 3, 5, 8, 1, 17, 7, 6, 2, 4, 16, 14, 19, 10, 11, 9, 12, 20, 13, 15, 18, 3, 5, 8, 1, 17, 7, 6, 2, 4, 16, 14, 19, 10, 11, 9, 12, 20, 13, 15, 18, 3, 5, 8, 1, 17, 7, 6, 2, 4, 16, 14, 19, 10, 11, 9, 12, 20, 13, 15, 18, 3, 5, 8, 1, 17, 7, 6, 2, 4, 16, 14, 19, 10, 11, 9, 12, 20, 13, 15, 18, 3, 5, 8, 1, 17, 7, 6, 2, 4, 16, 14, 19, 10, 11, 9, 12, 20, 13, 15, 18, 3, 5, 8, 1, 17, 7, 6, 2, 4, 16, 14, 19, 10, 11, 9, 12, 20, 13, 15, 18, 3, 5, 8, 1, 17, 7, 6, 2, 4, 16, 14, 19, 10, 11, 9, 12, 20, 13, 15, 18, 3, 5, 8, 1, 17, 7, 6, 2, 4, 16, 14, 19, 10, 11, 9, 12, 20, 13, 15, 18, 3, 5, 8, 1, 17, 7, 6, 2, 4, 16, 14, 19, 10, 11, 9, 12, 20, 13, 15, 18, 3, 5, 8, 1, 17, 7, 6]
bestever    1452    in generation 2496
[2, 16, 4, 14, 19, 10, 9, 12, 11, 20, 13, 15, 3, 5, 8, 1, 18, 17, 6, 7, 2, 16, 4, 14, 19, 10, 9, 12, 11, 20, 13, 15, 3, 5, 8, 1, 18, 17, 7, 6, 2, 16, 4, 14, 19, 10, 9, 12, 11, 20, 13, 15, 3, 5, 8, 1, 18, 17, 7, 6, 2, 16, 4, 14, 19, 10, 9, 12, 11, 20, 13, 15, 3, 5, 8, 1, 18, 17, 7, 6, 2, 16, 4, 14, 19, 10, 9, 12, 11, 20, 13, 15, 3, 5, 8, 1, 18, 17, 7, 6, 2, 16, 4, 14, 19, 10, 9, 12, 11, 20, 13, 15, 3, 5, 8, 1, 18, 17, 7, 6, 2, 16, 4, 14, 19, 10, 9, 12, 11, 20, 13, 15, 3, 5, 8, 1, 18, 17, 7, 6, 2, 16, 4, 14, 19, 10, 9, 12, 11, 20, 13, 15, 3, 5, 8, 1, 18, 17, 7, 6, 2, 16, 4, 14, 19, 10, 9, 12, 11, 20, 13, 15, 3, 5, 8, 1, 18, 17, 7, 6, 2, 16, 4, 14, 19, 10, 9, 12, 11, 20, 13, 15, 3, 5, 8, 1, 18, 17, 6, 7]
bestever    1446    in generation 2503
[2, 16, 4, 14, 19, 10, 9, 12, 11, 20, 13, 15, 3, 5, 8, 1, 18, 17, 7, 6, 2, 16, 4, 14, 19, 10, 9, 12, 11, 20, 13, 15, 3, 5, 8, 1, 18, 17, 7, 6, 2, 16, 4, 14, 19, 10, 9, 12, 11, 20, 13, 15, 3, 5, 8, 1, 18, 17, 7, 6, 2, 16, 4, 14, 19, 10, 9, 12, 11, 20, 13, 15, 3, 5, 8, 1, 18, 17, 7, 6, 2, 16, 4, 14, 19, 10, 9, 12, 11, 20, 13, 15, 3, 5, 8, 1, 18, 17, 7, 6, 2, 16, 4, 14, 19, 10, 9, 12, 11, 20, 13, 15, 3, 5, 8, 1, 18, 17, 7, 6, 2, 16, 4, 14, 19, 10, 9, 12, 11, 20, 13, 15, 3, 5, 8, 1, 18, 17, 7, 6, 2, 16, 4, 14, 19, 10, 9, 12, 11, 20, 13, 15, 3, 5, 2, 16, 4, 14, 19, 10, 9, 12, 11, 20, 13, 15, 3, 5, 8, 1, 18, 17, 7, 6, 8, 1, 18, 17, 7, 6, 2, 16, 4, 14, 19, 10, 9, 12, 11, 20, 13, 15, 3, 5, 8, 1, 18, 17, 7, 6]
bestever    1444    in generation 2619
[2, 16, 4, 14, 19, 10, 9, 12, 11, 20, 13, 15, 3, 8, 5, 1, 18, 17, 7, 6, 2, 16, 4, 14, 19, 10, 9, 12, 11, 20, 13, 15, 3, 8, 5, 1, 18, 17, 7, 6, 2, 16, 4, 14, 19, 10, 9, 12, 11, 20, 13, 15, 3, 8, 5, 1, 18, 17, 7, 6, 2, 16, 4, 14, 19, 10, 9, 12, 11, 20, 13, 15, 3, 8, 5, 1, 18, 17, 7, 6, 2, 16, 4, 14, 19, 10, 9, 12, 11, 20, 13, 15, 3, 8, 5, 1, 18, 17, 7, 6, 2, 16, 4, 14, 19, 10, 9, 12, 11, 20, 13, 15, 3, 8, 5, 1, 18, 17, 7, 6, 2, 16, 4, 14, 19, 10, 9, 12, 11, 20, 13, 15, 3, 8, 5, 1, 18, 17, 7, 6, 2, 16, 4, 14, 19, 10, 9, 12, 11, 20, 13, 15, 3, 8, 5, 1, 18, 17, 7, 6, 4, 2, 16, 14, 19, 10, 9, 12, 11, 20, 13, 15, 3, 8, 5, 1, 18, 17, 7, 6, 2, 16, 4, 14, 19, 10, 9, 12, 11, 20, 13, 15, 3, 8, 5, 1, 18, 17, 7, 6]
bestever    1441    in generation 2800
[16, 2, 4, 14, 19, 10, 9, 12, 13, 11, 20, 3, 8, 5, 15, 1, 18, 17, 7, 6, 16, 2, 4, 14, 19, 10, 9, 12, 11, 20, 13, 3, 8, 5, 15, 1, 18, 17, 7, 6, 16, 2, 4, 14, 19, 10, 9, 12, 11, 20, 13, 3, 8, 5, 15, 1, 18, 17, 7, 6, 16, 2, 4, 14, 19, 10, 9, 12, 11, 20, 13, 3, 8, 5, 15, 1, 18, 17, 7, 6, 16, 2, 4, 14, 19, 10, 9, 12, 11, 20, 13, 3, 8, 5, 15, 1, 18, 17, 7, 6, 16, 2, 4, 14, 19, 10, 9, 12, 11, 20, 13, 3, 8, 5, 15, 1, 18, 17, 7, 6, 16, 2, 4, 14, 19, 10, 9, 12, 11, 20, 13, 3, 8, 5, 15, 1, 18, 17, 7, 6, 16, 4, 2, 14, 19, 10, 9, 12, 11, 20, 13, 3, 8, 5, 15, 1, 18, 17, 7, 6, 16, 2, 4, 14, 19, 10, 9, 12, 11, 20, 13, 3, 8, 5, 15, 1, 18, 17, 7, 6, 16, 2, 4, 14, 19, 10, 9, 12, 11, 20, 13, 3, 8, 5, 15, 1, 18, 17, 7, 6]
bestever    1433    in generation 2939
[16, 2, 4, 14, 19, 10, 9, 12, 13, 11, 20, 8, 5, 3, 15, 1, 18, 17, 7, 6, 16, 2, 4, 14, 19, 10, 9, 12, 11, 20, 13, 8, 5, 3, 15, 1, 18, 17, 7, 6, 16, 2, 4, 14, 19, 10, 9, 12, 11, 20, 13, 8, 5, 3, 15, 1, 18, 17, 7, 6, 16, 2, 4, 14, 19, 10, 9, 12, 11, 20, 13, 8, 5, 3, 15, 1, 18, 17, 7, 6, 16, 2, 4, 14, 19, 10, 9, 12, 11, 20, 13, 8, 5, 3, 15, 1, 18, 17, 7, 6, 16, 2, 4, 14, 19, 10, 9, 12, 11, 20, 13, 8, 5, 3, 15, 1, 18, 17, 7, 6, 16, 2, 4, 14, 19, 10, 9, 12, 11, 20, 13, 8, 5, 3, 15, 1, 18, 17, 7, 6, 16, 2, 4, 14, 19, 10, 9, 12, 11, 20, 13, 8, 5, 3, 15, 1, 18, 17, 7, 6, 16, 2, 4, 14, 19, 10, 9, 12, 11, 20, 13, 8, 5, 3, 15, 1, 18, 17, 7, 6, 16, 2, 4, 14, 19, 10, 9, 12, 11, 20, 13, 8, 5, 3, 15, 1, 18, 17, 7, 6]
bestever    1431    in generation 2949
[16, 2, 4, 14, 19, 10, 9, 12, 11, 20, 13, 8, 5, 3, 15, 1, 18, 17, 7, 6, 16, 2, 4, 14, 19, 10, 9, 12, 11, 20, 13, 8, 5, 3, 15, 1, 18, 17, 7, 6, 16, 2, 4, 14, 19, 10, 9, 12, 11, 20, 13, 8, 5, 3, 15, 1, 18, 17, 7, 6, 16, 2, 4, 14, 19, 10, 9, 12, 11, 20, 13, 8, 5, 3, 15, 1, 18, 17, 7, 6, 16, 2, 4, 14, 19, 10, 9, 12, 11, 20, 13, 8, 5, 3, 15, 1, 18, 17, 7, 6, 16, 2, 4, 14, 19, 10, 9, 12, 11, 20, 13, 8, 5, 3, 15, 1, 18, 17, 7, 6, 16, 2, 4, 14, 19, 10, 9, 12, 11, 20, 13, 8, 5, 3, 15, 1, 18, 17, 7, 6, 16, 2, 4, 14, 19, 10, 9, 12, 11, 20, 13, 8, 5, 3, 15, 1, 18, 17, 7, 6, 16, 2, 4, 14, 19, 10, 9, 12, 11, 20, 13, 8, 5, 3, 15, 1, 18, 17, 7, 6, 16, 2, 4, 14, 19, 10, 9, 12, 11, 20, 13, 8, 5, 3, 15, 1, 18, 17, 7, 6]
bestever    1427    in generation 3048
[16, 2, 4, 14, 19, 10, 9, 12, 11, 20, 13, 8, 5, 3, 15, 16, 2, 4, 14, 19, 10, 16, 9, 12, 11, 20, 1, 18, 17, 13, 2, 4, 14, 19, 10, 9, 12, 11, 20, 8, 5, 3, 15, 1, 6, 16, 2, 4, 14, 16, 2, 4, 14, 18, 17, 7, 6, 7, 19, 10, 9, 12, 11, 20, 13, 8, 5, 3, 15, 1, 18, 17, 7, 6, 13, 8, 5, 3, 15, 1, 18, 17, 7, 6, 19, 10, 9, 12, 11, 20, 13, 8, 5, 3, 15, 1, 18, 17, 7, 16, 2, 4, 6, 14, 19, 10, 9, 12, 11, 20, 13, 8, 5, 3, 15, 1, 18, 17, 7, 6, 16, 2, 4, 14, 19, 10, 9, 12, 11, 20, 16, 16, 2, 4, 14, 19, 10, 9, 12, 11, 20, 13, 8, 5, 3, 15, 1, 18, 17, 7, 6, 13, 8, 5, 3, 2, 4, 14, 19, 10, 9, 15, 1, 18, 17, 7, 12, 11, 20, 13, 8, 6, 5, 3, 15, 1, 18, 17, 7, 6, 16, 2, 4, 14, 19, 10, 9, 12, 11, 20, 13, 8, 5, 3, 15, 1, 18, 17, 7, 6]
bestever    1425    in generation 3152
[16, 2, 4, 14, 19, 10, 9, 12, 11, 20, 13, 8, 5, 15, 3, 1, 18, 17, 6, 7, 16, 2, 4, 14, 19, 10, 9, 12, 11, 20, 13, 8, 5, 15, 3, 1, 18, 17, 6, 7, 16, 2, 4, 14, 19, 10, 9, 12, 11, 20, 13, 8, 5, 15, 3, 1, 18, 17, 7, 6, 16, 2, 4, 14, 19, 10, 9, 12, 11, 20, 13, 8, 5, 15, 3, 1, 18, 17, 7, 6, 16, 2, 4, 14, 19, 10, 9, 12, 11, 20, 13, 8, 5, 15, 3, 1, 18, 17, 7, 6, 16, 2, 4, 14, 19, 10, 9, 12, 11, 20, 13, 8, 5, 15, 3, 1, 18, 17, 7, 6, 16, 2, 4, 14, 19, 10, 9, 12, 11, 20, 13, 8, 5, 15, 3, 1, 18, 17, 7, 6, 16, 2, 4, 14, 19, 10, 9, 12, 11, 20, 13, 8, 5, 15, 3, 1, 18, 17, 7, 6, 16, 2, 4, 14, 19, 10, 9, 12, 11, 20, 13, 8, 5, 15, 3, 1, 18, 17, 7, 6, 16, 2, 4, 14, 19, 10, 9, 12, 11, 20, 13, 8, 5, 15, 3, 1, 18, 17, 7, 6]
bestever    1422    in generation 7291
[16, 2, 14, 4, 19, 10, 12, 9, 11, 13, 20, 8, 5, 15, 3, 1, 18, 17, 6, 7, 16, 2, 14, 4, 19, 10, 12, 9, 11, 13, 20, 8, 5, 15, 3, 1, 18, 17, 6, 7, 16, 2, 14, 4, 19, 10, 12, 9, 11, 13, 20, 8, 5, 15, 3, 1, 18, 17, 7, 6, 16, 2, 14, 4, 19, 10, 9, 12, 11, 13, 20, 8, 5, 15, 3, 1, 18, 17, 7, 6, 16, 2, 14, 4, 19, 10, 9, 12, 11, 13, 20, 8, 5, 15, 3, 1, 18, 17, 7, 6, 16, 2, 14, 4, 19, 10, 9, 12, 11, 20, 13, 8, 5, 15, 3, 1, 18, 17, 7, 6, 16, 2, 4, 14, 19, 10, 9, 12, 11, 20, 13, 8, 5, 15, 3, 1, 18, 17, 7, 6, 16, 2, 4, 14, 19, 10, 9, 12, 11, 20, 13, 8, 5, 15, 3, 1, 18, 17, 7, 6, 16, 2, 4, 14, 19, 10, 9, 12, 11, 20, 13, 8, 5, 15, 3, 1, 18, 17, 7, 6, 16, 2, 4, 14, 19, 10, 9, 12, 11, 20, 13, 8, 5, 15, 3, 1, 18, 17, 7, 6]
